
  32    4
  10   10   10   10

   0   0   0   0   0   7 2 3 4 5 7 8 10 
   9  10  10  10  10   6 30 22 19 16 13 6 
   2  10  10  10  10   9 31 30 29 22 18 17 16 14 11 
   2  10  10  10  10   5 31 16 14 13 9 
   1  10  10  10  10   5 30 18 15 12 11 
   5  10  10  10  10   2 18 9 
   4  10  10  10  10   6 31 30 27 21 20 16 
  10  10  10  10  10   5 29 27 20 16 15 
   9  10  10  10  10   4 28 27 17 12 
   8  10  10  10  10   4 30 29 20 15 
   7  10  10  10  10   6 28 27 26 25 23 21 
   7  10  10  10  10   5 29 26 24 23 20 
   6  10  10  10  10   4 28 27 21 18 
   1  10  10  10  10   3 24 23 20 
   1  10  10  10  10   2 25 17 
   6  10  10  10  10   3 26 25 23 
   3  10  10  10  10   2 24 23 
   6  10  10  10  10   2 24 23 
   6  10  10  10  10   1 20 
   5  10  10  10  10   1 25 
   9  10  10  10  10   1 24 
   5  10  10  10  10   1 28 
  10  10  10  10  10   1 32
   7  10  10  10  10   1 32
   8  10  10  10  10   1 32
   2  10  10  10  10   1 32
   7  10  10  10  10   1 32
   2  10  10  10  10   1 32
   2  10  10  10  10   1 32
   3  10  10  10  10   1 32
  10  10  10  10  10   1 32
   0   0   0   0   0   0 
